
Gurobi 11.0.3 (linux64) logging started Mon Nov 25 03:11:36 2024

Set parameter LogFile to value "/home/yihong/Coding/OR_SUC/SUC_results_bigM100000_thread4/case24_ieee_rts_theta0.1_epsilon0.025_gurobi_seed1390000_num_gen100_N_WDR100_load_scaling_factor1_proposed_T8quadra_cost.txt"
Set parameter TimeLimit to value 3600
Gurobi Optimizer version 11.0.3 build v11.0.3rc0 (linux64 - "Ubuntu 20.04.6 LTS")

CPU model: AMD EPYC 7532 32-Core Processor, instruction set [SSE2|AVX|AVX2]
Thread count: 64 physical cores, 128 logical processors, using up to 4 threads

Optimize a model with 16982 rows, 10021 columns and 235066 nonzeros
Model fingerprint: 0x6bc30688
Model has 800 quadratic constraints
Variable types: 9221 continuous, 800 integer (800 binary)
Coefficient statistics:
  Matrix range     [3e-04, 3e+03]
  QMatrix range    [2e-03, 8e-03]
  QLMatrix range   [4e-01, 6e+01]
  Objective range  [1e+00, 1e+00]
  Bounds range     [1e+00, 1e+00]
  RHS range        [1e+00, 9e+03]
Presolve removed 13879 rows and 4492 columns
Presolve time: 0.07s
Presolved: 3103 rows, 5529 columns, 22285 nonzeros
Presolved model has 800 quadratic constraint(s)
Variable types: 4729 continuous, 800 integer (800 binary)

Root relaxation: objective 1.308806e+04, 2357 iterations, 0.04 seconds (0.04 work units)

    Nodes    |    Current Node    |     Objective Bounds      |     Work
 Expl Unexpl |  Obj  Depth IntInf | Incumbent    BestBd   Gap | It/Node Time

     0     0 13088.0634    0    8          - 13088.0634      -     -    0s
     0     0 142305.973    0  208          - 142305.973      -     -    0s
     0     0 142309.209    0  208          - 142309.209      -     -    0s
     0     0 237149.676    0  152          - 237149.676      -     -    0s
     0     0 237153.637    0  152          - 237153.637      -     -    0s
     0     0 237221.518    0   96          - 237221.518      -     -    0s
     0     0 237226.638    0   96          - 237226.638      -     -    0s
     0     0 237226.638    0   96          - 237226.638      -     -    0s
     0     0 237226.638    0   96          - 237226.638      -     -    0s
H    0     0                    237291.74547 237226.638  0.03%     -    0s

Cutting planes:
  Gomory: 95
  Implied bound: 217
  MIR: 23
  Flow cover: 80

Explored 1 nodes (6279 simplex iterations) in 0.71 seconds (0.65 work units)
Thread count was 4 (of 128 available processors)

Solution count 1: 237292 

Optimal solution found (tolerance 1.00e-03)
Warning: max constraint violation (8.5063e-09) exceeds tolerance
Best objective 2.372917454685e+05, best bound 2.372266375773e+05, gap 0.0274%
